(set-info :source |printed by MathSAT|)
(declare-fun |fibo::n__param__@2| () (_ BitVec 32))
(declare-fun |fibo::n@2| () (_ BitVec 32))
(declare-fun |fibo::n__param__@3| () (_ BitVec 32))
(declare-fun |fibo::__retval__@2| () (_ BitVec 32))
(declare-fun |fibo::n@3| () (_ BitVec 32))
(declare-fun |fibo::n__param__@4| () (_ BitVec 32))
(declare-fun |fibo::n@4| () (_ BitVec 32))
(declare-fun |fibo::n__param__@5| () (_ BitVec 32))
(declare-fun |fibo::n@5| () (_ BitVec 32))
(declare-fun |fibo::n__param__@6| () (_ BitVec 32))
(declare-fun |fibo::n@6| () (_ BitVec 32))
(declare-fun |fibo::iVar2@7| () (_ BitVec 32))
(declare-fun |fibo::__retval__@3| () (_ BitVec 32))
(declare-fun |fibo::__retval__@4| () (_ BitVec 32))
(declare-fun |fibo::__retval__@5| () (_ BitVec 32))
(declare-fun |fibo::__retval__@6| () (_ BitVec 32))
(declare-fun |fibo::__retval__@7| () (_ BitVec 32))
(declare-fun |fibo::__retval__@8| () (_ BitVec 32))
(declare-fun |fibo::__retval__@9| () (_ BitVec 32))
(declare-fun |fibo::__retval__@10| () (_ BitVec 32))
(declare-fun |fibo::iVar1@8| () (_ BitVec 32))
(declare-fun |fibo::n__param__@8| () (_ BitVec 32))
(declare-fun |fibo::n@8| () (_ BitVec 32))
(declare-fun |fibo::iVar2@10| () (_ BitVec 32))
(declare-fun |fibo::iVar2@12| () (_ BitVec 32))
(declare-fun |fibo::iVar2@13| () (_ BitVec 32))
(declare-fun |fibo::iVar1@12| () (_ BitVec 32))
(declare-fun |fibo::n__param__@11| () (_ BitVec 32))
(declare-fun |fibo::n@11| () (_ BitVec 32))
(declare-fun |fibo::iVar2@16| () (_ BitVec 32))
(declare-fun |fibo::iVar2@18| () (_ BitVec 32))
(declare-fun |fibo::iVar2@19| () (_ BitVec 32))
(declare-fun |fibo::iVar1@16| () (_ BitVec 32))
(declare-fun |fibo::n__param__@14| () (_ BitVec 32))
(declare-fun |fibo::n@14| () (_ BitVec 32))
(declare-fun |fibo::n__param__@15| () (_ BitVec 32))
(declare-fun |fibo::n@15| () (_ BitVec 32))
(declare-fun |fibo::iVar2@23| () (_ BitVec 32))
(declare-fun |fibo::iVar1@20| () (_ BitVec 32))
(declare-fun |fibo::n__param__@17| () (_ BitVec 32))
(declare-fun |fibo::n@17| () (_ BitVec 32))
(declare-fun |fibo::iVar2@26| () (_ BitVec 32))
(declare-fun |fibo::iVar2@28| () (_ BitVec 32))
(declare-fun |fibo::iVar2@29| () (_ BitVec 32))
(declare-fun |fibo::iVar2@31| () (_ BitVec 32))
(declare-fun |fibo::iVar2@32| () (_ BitVec 32))
(declare-fun |fibo::iVar1@25| () (_ BitVec 32))
(declare-fun |fibo::n__param__@21| () (_ BitVec 32))
(declare-fun |fibo::n@21| () (_ BitVec 32))
(declare-fun |fibo::n__param__@22| () (_ BitVec 32))
(declare-fun |fibo::n@22| () (_ BitVec 32))
(declare-fun |fibo::n__param__@23| () (_ BitVec 32))
(declare-fun |fibo::n@23| () (_ BitVec 32))
(declare-fun |fibo::iVar2@37| () (_ BitVec 32))
(declare-fun |fibo::__retval__@11| () (_ BitVec 32))
(declare-fun |fibo::iVar1@30| () (_ BitVec 32))
(declare-fun |fibo::n__param__@25| () (_ BitVec 32))
(declare-fun |fibo::n@25| () (_ BitVec 32))
(declare-fun |fibo::iVar2@40| () (_ BitVec 32))
(declare-fun |fibo::__retval__@12| () (_ BitVec 32))
(declare-fun |fibo::iVar2@42| () (_ BitVec 32))
(declare-fun |fibo::iVar2@43| () (_ BitVec 32))
(declare-fun |fibo::__retval__@13| () (_ BitVec 32))
(declare-fun |fibo::iVar1@34| () (_ BitVec 32))
(declare-fun |fibo::n__param__@28| () (_ BitVec 32))
(declare-fun |fibo::n@28| () (_ BitVec 32))
(declare-fun |fibo::iVar2@46| () (_ BitVec 32))
(declare-fun |fibo::__retval__@14| () (_ BitVec 32))
(declare-fun |fibo::iVar2@48| () (_ BitVec 32))
(declare-fun |fibo::iVar2@49| () (_ BitVec 32))
(declare-fun |fibo::__retval__@15| () (_ BitVec 32))
(declare-fun |fibo::iVar2@51| () (_ BitVec 32))
(declare-fun |fibo::iVar2@52| () (_ BitVec 32))
(declare-fun |fibo::__retval__@16| () (_ BitVec 32))
(declare-fun |main::iVar1@18| () (_ BitVec 32))
(assert (let ((.def_14 (= |fibo::n__param__@2| |fibo::n@2|)))(let ((.def_12 (= |fibo::n__param__@2| (_ bv5 32))))(let ((.def_434 (and .def_12 .def_14)))(let ((.def_16 (bvslt |fibo::n@2| (_ bv1 32))))(let ((.def_19 (not .def_16)))(let ((.def_435 (and .def_19 .def_434)))(let ((.def_21 (= |fibo::n@2| (_ bv1 32))))(let ((.def_24 (not .def_21)))(let ((.def_436 (and .def_24 .def_435)))(let ((.def_29 (bvadd (_ bv4294967295 32) |fibo::n@2|)))(let ((.def_31 (= .def_29 |fibo::n__param__@3|)))(let ((.def_437 (and .def_31 .def_436)))(let ((.def_70 (= |fibo::n__param__@3| |fibo::n@3|)))(let ((.def_438 (and .def_70 .def_437)))(let ((.def_71 (bvslt |fibo::n@3| (_ bv1 32))))(let ((.def_73 (not .def_71)))(let ((.def_439 (and .def_73 .def_438)))(let ((.def_75 (= |fibo::n@3| (_ bv1 32))))(let ((.def_77 (not .def_75)))(let ((.def_440 (and .def_77 .def_439)))(let ((.def_81 (bvadd (_ bv4294967295 32) |fibo::n@3|)))(let ((.def_83 (= .def_81 |fibo::n__param__@4|)))(let ((.def_441 (and .def_83 .def_440)))(let ((.def_85 (= |fibo::n__param__@4| |fibo::n@4|)))(let ((.def_442 (and .def_85 .def_441)))(let ((.def_86 (bvslt |fibo::n@4| (_ bv1 32))))(let ((.def_88 (not .def_86)))(let ((.def_443 (and .def_88 .def_442)))(let ((.def_90 (= |fibo::n@4| (_ bv1 32))))(let ((.def_92 (not .def_90)))(let ((.def_444 (and .def_92 .def_443)))(let ((.def_96 (bvadd (_ bv4294967295 32) |fibo::n@4|)))(let ((.def_98 (= .def_96 |fibo::n__param__@5|)))(let ((.def_445 (and .def_98 .def_444)))(let ((.def_100 (= |fibo::n__param__@5| |fibo::n@5|)))(let ((.def_446 (and .def_100 .def_445)))(let ((.def_101 (bvslt |fibo::n@5| (_ bv1 32))))(let ((.def_103 (not .def_101)))(let ((.def_447 (and .def_103 .def_446)))(let ((.def_105 (= |fibo::n@5| (_ bv1 32))))(let ((.def_107 (not .def_105)))(let ((.def_448 (and .def_107 .def_447)))(let ((.def_111 (bvadd (_ bv4294967295 32) |fibo::n@5|)))(let ((.def_113 (= .def_111 |fibo::n__param__@6|)))(let ((.def_449 (and .def_113 .def_448)))(let ((.def_115 (= |fibo::n__param__@6| |fibo::n@6|)))(let ((.def_450 (and .def_115 .def_449)))(let ((.def_116 (bvslt |fibo::n@6| (_ bv1 32))))(let ((.def_118 (not .def_116)))(let ((.def_451 (and .def_118 .def_450)))(let ((.def_120 (= |fibo::n@6| (_ bv1 32))))(let ((.def_452 (and .def_120 .def_451)))(let ((.def_124 (= |fibo::iVar2@7| (_ bv1 32))))(let ((.def_453 (and .def_124 .def_452)))(let ((.def_126 (= |fibo::__retval__@2| |fibo::iVar2@7|)))(let ((.def_454 (and .def_126 .def_453)))(let ((.def_200 (= |fibo::__retval__@2| |fibo::iVar1@8|)))(let ((.def_455 (and .def_200 .def_454)))(let ((.def_134 (bvadd (_ bv4294967294 32) |fibo::n@5|)))(let ((.def_202 (= .def_134 |fibo::n__param__@8|)))(let ((.def_456 (and .def_202 .def_455)))(let ((.def_204 (= |fibo::n__param__@8| |fibo::n@8|)))(let ((.def_457 (and .def_204 .def_456)))(let ((.def_205 (bvslt |fibo::n@8| (_ bv1 32))))(let ((.def_458 (and .def_205 .def_457)))(let ((.def_209 (= |fibo::iVar2@10| (_ bv0 32))))(let ((.def_459 (and .def_209 .def_458)))(let ((.def_211 (= |fibo::__retval__@3| |fibo::iVar2@10|)))(let ((.def_460 (and .def_211 .def_459)))(let ((.def_214 (= |fibo::__retval__@3| |fibo::iVar2@12|)))(let ((.def_461 (and .def_214 .def_460)))(let ((.def_216 (bvadd |fibo::iVar1@8| |fibo::iVar2@12|)))(let ((.def_218 (= .def_216 |fibo::iVar2@13|)))(let ((.def_462 (and .def_218 .def_461)))(let ((.def_219 (= |fibo::__retval__@4| |fibo::iVar2@13|)))(let ((.def_463 (and .def_219 .def_462)))(let ((.def_222 (= |fibo::__retval__@4| |fibo::iVar1@12|)))(let ((.def_464 (and .def_222 .def_463)))(let ((.def_159 (bvadd (_ bv4294967294 32) |fibo::n@4|)))(let ((.def_224 (= .def_159 |fibo::n__param__@11|)))(let ((.def_465 (and .def_224 .def_464)))(let ((.def_226 (= |fibo::n__param__@11| |fibo::n@11|)))(let ((.def_466 (and .def_226 .def_465)))(let ((.def_227 (bvslt |fibo::n@11| (_ bv1 32))))(let ((.def_229 (not .def_227)))(let ((.def_467 (and .def_229 .def_466)))(let ((.def_231 (= |fibo::n@11| (_ bv1 32))))(let ((.def_468 (and .def_231 .def_467)))(let ((.def_235 (= |fibo::iVar2@16| (_ bv1 32))))(let ((.def_469 (and .def_235 .def_468)))(let ((.def_237 (= |fibo::__retval__@5| |fibo::iVar2@16|)))(let ((.def_470 (and .def_237 .def_469)))(let ((.def_240 (= |fibo::__retval__@5| |fibo::iVar2@18|)))(let ((.def_471 (and .def_240 .def_470)))(let ((.def_242 (bvadd |fibo::iVar1@12| |fibo::iVar2@18|)))(let ((.def_244 (= .def_242 |fibo::iVar2@19|)))(let ((.def_472 (and .def_244 .def_471)))(let ((.def_245 (= |fibo::__retval__@6| |fibo::iVar2@19|)))(let ((.def_473 (and .def_245 .def_472)))(let ((.def_248 (= |fibo::__retval__@6| |fibo::iVar1@16|)))(let ((.def_474 (and .def_248 .def_473)))(let ((.def_172 (bvadd (_ bv4294967294 32) |fibo::n@3|)))(let ((.def_250 (= .def_172 |fibo::n__param__@14|)))(let ((.def_475 (and .def_250 .def_474)))(let ((.def_252 (= |fibo::n__param__@14| |fibo::n@14|)))(let ((.def_476 (and .def_252 .def_475)))(let ((.def_253 (bvslt |fibo::n@14| (_ bv1 32))))(let ((.def_255 (not .def_253)))(let ((.def_477 (and .def_255 .def_476)))(let ((.def_257 (= |fibo::n@14| (_ bv1 32))))(let ((.def_259 (not .def_257)))(let ((.def_478 (and .def_259 .def_477)))(let ((.def_263 (bvadd (_ bv4294967295 32) |fibo::n@14|)))(let ((.def_265 (= .def_263 |fibo::n__param__@15|)))(let ((.def_479 (and .def_265 .def_478)))(let ((.def_267 (= |fibo::n__param__@15| |fibo::n@15|)))(let ((.def_480 (and .def_267 .def_479)))(let ((.def_268 (bvslt |fibo::n@15| (_ bv1 32))))(let ((.def_270 (not .def_268)))(let ((.def_481 (and .def_270 .def_480)))(let ((.def_272 (= |fibo::n@15| (_ bv1 32))))(let ((.def_482 (and .def_272 .def_481)))(let ((.def_276 (= |fibo::iVar2@23| (_ bv1 32))))(let ((.def_483 (and .def_276 .def_482)))(let ((.def_278 (= |fibo::__retval__@7| |fibo::iVar2@23|)))(let ((.def_484 (and .def_278 .def_483)))(let ((.def_281 (= |fibo::__retval__@7| |fibo::iVar1@20|)))(let ((.def_485 (and .def_281 .def_484)))(let ((.def_284 (bvadd (_ bv4294967294 32) |fibo::n@14|)))(let ((.def_286 (= .def_284 |fibo::n__param__@17|)))(let ((.def_486 (and .def_286 .def_485)))(let ((.def_288 (= |fibo::n__param__@17| |fibo::n@17|)))(let ((.def_487 (and .def_288 .def_486)))(let ((.def_289 (bvslt |fibo::n@17| (_ bv1 32))))(let ((.def_488 (and .def_289 .def_487)))(let ((.def_293 (= |fibo::iVar2@26| (_ bv0 32))))(let ((.def_489 (and .def_293 .def_488)))(let ((.def_295 (= |fibo::__retval__@8| |fibo::iVar2@26|)))(let ((.def_490 (and .def_295 .def_489)))(let ((.def_298 (= |fibo::__retval__@8| |fibo::iVar2@28|)))(let ((.def_491 (and .def_298 .def_490)))(let ((.def_300 (bvadd |fibo::iVar1@20| |fibo::iVar2@28|)))(let ((.def_302 (= .def_300 |fibo::iVar2@29|)))(let ((.def_492 (and .def_302 .def_491)))(let ((.def_303 (= |fibo::__retval__@9| |fibo::iVar2@29|)))(let ((.def_493 (and .def_303 .def_492)))(let ((.def_306 (= |fibo::__retval__@9| |fibo::iVar2@31|)))(let ((.def_494 (and .def_306 .def_493)))(let ((.def_308 (bvadd |fibo::iVar1@16| |fibo::iVar2@31|)))(let ((.def_310 (= .def_308 |fibo::iVar2@32|)))(let ((.def_495 (and .def_310 .def_494)))(let ((.def_311 (= |fibo::__retval__@10| |fibo::iVar2@32|)))(let ((.def_496 (and .def_311 .def_495)))(let ((.def_314 (= |fibo::__retval__@10| |fibo::iVar1@25|)))(let ((.def_497 (and .def_314 .def_496)))(let ((.def_187 (bvadd (_ bv4294967294 32) |fibo::n@2|)))(let ((.def_316 (= .def_187 |fibo::n__param__@21|)))(let ((.def_498 (and .def_316 .def_497)))(let ((.def_318 (= |fibo::n__param__@21| |fibo::n@21|)))(let ((.def_499 (and .def_318 .def_498)))(let ((.def_319 (bvslt |fibo::n@21| (_ bv1 32))))(let ((.def_321 (not .def_319)))(let ((.def_500 (and .def_321 .def_499)))(let ((.def_323 (= |fibo::n@21| (_ bv1 32))))(let ((.def_325 (not .def_323)))(let ((.def_501 (and .def_325 .def_500)))(let ((.def_329 (bvadd (_ bv4294967295 32) |fibo::n@21|)))(let ((.def_331 (= .def_329 |fibo::n__param__@22|)))(let ((.def_502 (and .def_331 .def_501)))(let ((.def_333 (= |fibo::n__param__@22| |fibo::n@22|)))(let ((.def_503 (and .def_333 .def_502)))(let ((.def_334 (bvslt |fibo::n@22| (_ bv1 32))))(let ((.def_336 (not .def_334)))(let ((.def_504 (and .def_336 .def_503)))(let ((.def_338 (= |fibo::n@22| (_ bv1 32))))(let ((.def_340 (not .def_338)))(let ((.def_505 (and .def_340 .def_504)))(let ((.def_344 (bvadd (_ bv4294967295 32) |fibo::n@22|)))(let ((.def_346 (= .def_344 |fibo::n__param__@23|)))(let ((.def_506 (and .def_346 .def_505)))(let ((.def_348 (= |fibo::n__param__@23| |fibo::n@23|)))(let ((.def_507 (and .def_348 .def_506)))(let ((.def_349 (bvslt |fibo::n@23| (_ bv1 32))))(let ((.def_351 (not .def_349)))(let ((.def_508 (and .def_351 .def_507)))(let ((.def_353 (= |fibo::n@23| (_ bv1 32))))(let ((.def_509 (and .def_353 .def_508)))(let ((.def_357 (= |fibo::iVar2@37| (_ bv1 32))))(let ((.def_510 (and .def_357 .def_509)))(let ((.def_360 (= |fibo::iVar2@37| |fibo::__retval__@11|)))(let ((.def_511 (and .def_360 .def_510)))(let ((.def_363 (= |fibo::__retval__@11| |fibo::iVar1@30|)))(let ((.def_512 (and .def_363 .def_511)))(let ((.def_366 (bvadd (_ bv4294967294 32) |fibo::n@22|)))(let ((.def_368 (= .def_366 |fibo::n__param__@25|)))(let ((.def_513 (and .def_368 .def_512)))(let ((.def_370 (= |fibo::n__param__@25| |fibo::n@25|)))(let ((.def_514 (and .def_370 .def_513)))(let ((.def_371 (bvslt |fibo::n@25| (_ bv1 32))))(let ((.def_515 (and .def_371 .def_514)))(let ((.def_375 (= |fibo::iVar2@40| (_ bv0 32))))(let ((.def_516 (and .def_375 .def_515)))(let ((.def_378 (= |fibo::iVar2@40| |fibo::__retval__@12|)))(let ((.def_517 (and .def_378 .def_516)))(let ((.def_381 (= |fibo::__retval__@12| |fibo::iVar2@42|)))(let ((.def_518 (and .def_381 .def_517)))(let ((.def_383 (bvadd |fibo::iVar1@30| |fibo::iVar2@42|)))(let ((.def_385 (= .def_383 |fibo::iVar2@43|)))(let ((.def_519 (and .def_385 .def_518)))(let ((.def_387 (= |fibo::iVar2@43| |fibo::__retval__@13|)))(let ((.def_520 (and .def_387 .def_519)))(let ((.def_390 (= |fibo::__retval__@13| |fibo::iVar1@34|)))(let ((.def_521 (and .def_390 .def_520)))(let ((.def_393 (bvadd (_ bv4294967294 32) |fibo::n@21|)))(let ((.def_395 (= .def_393 |fibo::n__param__@28|)))(let ((.def_522 (and .def_395 .def_521)))(let ((.def_397 (= |fibo::n__param__@28| |fibo::n@28|)))(let ((.def_523 (and .def_397 .def_522)))(let ((.def_398 (bvslt |fibo::n@28| (_ bv1 32))))(let ((.def_400 (not .def_398)))(let ((.def_524 (and .def_400 .def_523)))(let ((.def_402 (= |fibo::n@28| (_ bv1 32))))(let ((.def_525 (and .def_402 .def_524)))(let ((.def_406 (= |fibo::iVar2@46| (_ bv1 32))))(let ((.def_526 (and .def_406 .def_525)))(let ((.def_409 (= |fibo::iVar2@46| |fibo::__retval__@14|)))(let ((.def_527 (and .def_409 .def_526)))(let ((.def_412 (= |fibo::__retval__@14| |fibo::iVar2@48|)))(let ((.def_528 (and .def_412 .def_527)))(let ((.def_414 (bvadd |fibo::iVar1@34| |fibo::iVar2@48|)))(let ((.def_416 (= .def_414 |fibo::iVar2@49|)))(let ((.def_529 (and .def_416 .def_528)))(let ((.def_418 (= |fibo::iVar2@49| |fibo::__retval__@15|)))(let ((.def_530 (and .def_418 .def_529)))(let ((.def_421 (= |fibo::__retval__@15| |fibo::iVar2@51|)))(let ((.def_531 (and .def_421 .def_530)))(let ((.def_423 (bvadd |fibo::iVar1@25| |fibo::iVar2@51|)))(let ((.def_425 (= .def_423 |fibo::iVar2@52|)))(let ((.def_532 (and .def_425 .def_531)))(let ((.def_427 (= |fibo::iVar2@52| |fibo::__retval__@16|)))(let ((.def_533 (and .def_427 .def_532)))(let ((.def_430 (= |fibo::__retval__@16| |main::iVar1@18|)))(let ((.def_534 (and .def_430 .def_533)))(let ((.def_431 (= |main::iVar1@18| (_ bv5 32))))(let ((.def_535 (and .def_431 .def_534))).def_535))))))))))))))))))))))))))))))))))))))))))))))))))))))))))))))))))))))))))))))))))))))))))))))))))))))))))))))))))))))))))))))))))))))))))))))))))))))))))))))))))))))))))))))))))))))))))))))))))))))))))))))))))))))))))))))))))))))))))))))))))))))